p cnf 24 15
a 2 0
a 3 0
a 4 0
a 5 0
a 6 0
a 7 0
a 8 0
a 9 0
a 10 0
a 11 0
a 12 0
a 13 0
e 14 0
e 15 0
e 16 0
e 17 0
e 18 0
e 19 0
e 20 0
e 21 0
e 22 0
e 23 0
e 24 0
e 25 0
10 6 1 0
-10 -1 0
-6 -1 0
10 2 26 0
-10 -26 0
-2 -26 0
6 2 27 0
-6 -27 0
-2 -27 0
11 7 28 0
-11 -28 0
-7 -28 0
11 3 29 0
-11 -29 0
-3 -29 0
7 3 30 0
-7 -30 0
-3 -30 0
12 8 31 0
-12 -31 0
-8 -31 0
12 4 32 0
-12 -32 0
-4 -32 0
8 4 33 0
-8 -33 0
-4 -33 0
13 9 34 0
-13 -34 0
-9 -34 0
13 5 35 0
-13 -35 0
-5 -35 0
9 5 36 0
-9 -36 0
-5 -36 0
-12 -38 37 0
12 -37 0
38 -37 0
38 40 -39 0
-38 39 0
-40 39 0
40 0
